c Instancia generada aleatoriamente
p edge 70 498 10
v 4 14 22 41 61
v 9 1 10 23 25 43 46 55 58 59
v 4 28 51 52 69
v 7 16 18 33 39 48 60 67
v 11 2 3 5 8 9 42 45 47 50 63 64
v 5 21 31 40 57 66
v 6 12 17 29 49 54 62
v 7 24 30 36 38 53 65 70
v 7 4 7 13 19 27 56 68
v 10 6 11 15 20 26 32 34 35 37 44
e 1 7
e 1 20
e 1 22
e 1 24
e 1 26
e 1 28
e 1 29
e 1 50
e 1 53
e 1 54
e 1 58
e 1 59
e 1 61
e 2 5
e 2 15
e 2 38
e 2 48
e 2 52
e 2 54
e 2 55
e 2 68
e 2 70
e 3 5
e 3 7
e 3 9
e 3 11
e 3 19
e 3 20
e 3 22
e 3 23
e 3 29
e 3 30
e 3 34
e 3 36
e 3 38
e 3 39
e 3 42
e 3 43
e 3 52
e 3 61
e 4 7
e 4 10
e 4 19
e 4 28
e 4 36
e 4 46
e 4 48
e 4 54
e 4 66
e 4 70
e 5 6
e 5 15
e 5 17
e 5 20
e 5 26
e 5 42
e 5 50
e 5 53
e 5 58
e 5 61
e 5 62
e 6 12
e 6 13
e 6 14
e 6 19
e 6 27
e 6 43
e 6 45
e 6 49
e 6 52
e 6 59
e 6 60
e 6 65
e 6 66
e 6 67
e 7 9
e 7 18
e 7 25
e 7 26
e 7 28
e 7 38
e 7 45
e 7 47
e 7 58
e 7 60
e 8 12
e 8 23
e 8 24
e 8 25
e 8 27
e 8 31
e 8 32
e 8 37
e 8 44
e 8 45
e 8 50
e 9 19
e 9 29
e 9 31
e 9 36
e 9 39
e 9 44
e 9 48
e 9 56
e 9 57
e 10 20
e 10 33
e 10 41
e 10 43
e 10 48
e 10 52
e 10 54
e 10 60
e 10 66
e 11 16
e 11 21
e 11 23
e 11 26
e 11 27
e 11 30
e 11 31
e 11 32
e 11 36
e 11 38
e 11 46
e 11 47
e 11 53
e 11 62
e 12 14
e 12 16
e 12 17
e 12 18
e 12 20
e 12 22
e 12 25
e 12 30
e 12 42
e 12 59
e 12 69
e 13 22
e 13 23
e 13 24
e 13 31
e 13 32
e 13 35
e 13 36
e 13 40
e 13 43
e 13 47
e 13 52
e 13 55
e 13 59
e 13 62
e 13 65
e 14 19
e 14 20
e 14 22
e 14 24
e 14 33
e 14 34
e 14 39
e 14 42
e 14 44
e 14 46
e 14 52
e 14 53
e 14 55
e 14 57
e 15 16
e 15 30
e 15 33
e 15 34
e 15 35
e 15 39
e 15 42
e 15 44
e 15 47
e 15 55
e 15 66
e 16 18
e 16 20
e 16 21
e 16 26
e 16 30
e 16 38
e 16 50
e 16 54
e 16 56
e 16 58
e 16 59
e 16 65
e 16 66
e 16 69
e 17 27
e 17 29
e 17 39
e 17 41
e 17 51
e 17 52
e 17 58
e 17 65
e 17 67
e 17 70
e 18 20
e 18 29
e 18 30
e 18 31
e 18 34
e 18 36
e 18 40
e 18 50
e 18 57
e 18 60
e 18 63
e 18 67
e 18 68
e 19 22
e 19 33
e 19 37
e 19 41
e 19 44
e 19 47
e 19 49
e 19 51
e 19 57
e 19 60
e 19 69
e 19 70
e 20 31
e 20 42
e 20 46
e 20 48
e 20 49
e 20 54
e 20 55
e 20 56
e 20 69
e 21 47
e 21 51
e 21 57
e 21 61
e 21 66
e 21 67
e 22 25
e 22 26
e 22 27
e 22 38
e 22 39
e 22 45
e 22 53
e 22 54
e 22 55
e 22 57
e 22 59
e 22 68
e 23 28
e 23 29
e 23 30
e 23 32
e 23 33
e 23 34
e 23 39
e 23 47
e 23 48
e 23 56
e 23 61
e 23 64
e 23 65
e 23 67
e 23 69
e 24 40
e 24 43
e 24 44
e 24 46
e 24 49
e 24 50
e 24 60
e 24 65
e 24 66
e 25 34
e 25 38
e 25 42
e 25 43
e 25 46
e 25 50
e 25 61
e 25 68
e 26 34
e 26 37
e 26 40
e 26 50
e 26 51
e 26 62
e 26 63
e 26 64
e 26 66
e 26 67
e 27 34
e 27 37
e 27 41
e 27 45
e 27 56
e 27 57
e 27 58
e 28 39
e 28 60
e 28 61
e 28 62
e 29 34
e 29 38
e 29 39
e 29 45
e 29 47
e 29 50
e 29 58
e 29 60
e 29 61
e 29 63
e 29 67
e 29 70
e 30 39
e 30 47
e 30 48
e 30 55
e 30 57
e 30 58
e 30 59
e 30 61
e 30 66
e 31 35
e 31 36
e 31 48
e 31 51
e 31 59
e 31 62
e 31 63
e 31 69
e 31 70
e 32 35
e 32 42
e 32 44
e 32 47
e 32 51
e 32 59
e 32 65
e 33 42
e 33 43
e 33 45
e 33 47
e 33 55
e 33 56
e 33 58
e 33 59
e 33 66
e 34 40
e 34 56
e 34 60
e 34 62
e 34 65
e 34 68
e 35 36
e 35 37
e 35 41
e 35 49
e 35 51
e 35 55
e 35 59
e 35 66
e 36 39
e 36 45
e 36 47
e 36 51
e 36 52
e 36 59
e 36 60
e 36 63
e 37 44
e 37 50
e 37 51
e 37 56
e 37 61
e 37 62
e 37 63
e 37 67
e 37 68
e 38 42
e 38 52
e 38 55
e 38 57
e 38 62
e 38 63
e 38 64
e 38 66
e 38 67
e 38 69
e 39 40
e 39 54
e 39 57
e 39 58
e 39 62
e 39 68
e 40 41
e 40 44
e 40 48
e 40 50
e 40 52
e 40 55
e 40 56
e 40 59
e 40 64
e 41 43
e 41 51
e 41 54
e 41 59
e 41 62
e 41 63
e 41 65
e 41 69
e 41 70
e 42 46
e 42 52
e 42 55
e 42 56
e 42 60
e 42 61
e 42 67
e 42 69
e 43 45
e 43 46
e 43 55
e 43 56
e 43 59
e 43 63
e 43 70
e 44 47
e 44 52
e 44 53
e 44 60
e 44 67
e 45 57
e 45 64
e 45 68
e 45 70
e 46 48
e 46 49
e 46 52
e 46 53
e 46 54
e 46 63
e 46 65
e 47 48
e 47 53
e 47 58
e 47 61
e 47 63
e 47 70
e 48 52
e 48 54
e 48 57
e 48 58
e 48 59
e 48 66
e 49 50
e 49 51
e 49 58
e 49 62
e 50 54
e 50 65
e 50 69
e 51 56
e 51 61
e 51 63
e 52 55
e 52 60
e 52 63
e 52 68
e 53 66
e 53 69
e 54 67
e 55 58
e 55 65
e 56 61
e 57 60
e 57 65
e 58 59
e 58 64
e 58 67
e 58 68
e 58 70
e 60 68
e 60 70
e 61 62
e 61 63
e 61 65
e 61 67
e 62 64
e 62 65
e 69 70
